c cksystemsgroup.github.io/unicorn
c CNF contains a total of 501 clauses.
c CNF contains a total of 122 variables.
c CNF clauses cover 1 bad states.
c Variable name mapping (17 names):
c   1: input[bit=0]
c   2: input[bit=0]
c   5: input[bit=1]
c   7: input[bit=1]
c   13: input[bit=2]
c   18: input[bit=2]
c   24: input[bit=3]
c   32: input[bit=3]
c   38: input[bit=4]
c   49: input[bit=4]
c   54: input[bit=5]
c   68: input[bit=5]
c   74: input[bit=6]
c   91: input[bit=6]
c   97: input[bit=7]
c   117: input[bit=7]
c   122: ?
p cnf 122 501
-1 -2 3 0
1 -3 0
2 -3 0
-3 -4 0
3 4 0
-5 -2 6 0
5 -6 0
2 -6 0
-1 -7 8 0
1 -8 0
7 -8 0
-9 0
6 8 9 -10 0
6 8 -9 10 0
6 -8 9 10 0
6 -8 -9 -10 0
-6 8 9 10 0
-6 8 -9 -10 0
-6 -8 9 -10 0
-6 -8 -9 10 0
-10 -11 0
10 11 0
-4 -11 12 0
4 -12 0
11 -12 0
-13 -2 14 0
13 -14 0
2 -14 0
-5 -7 15 0
5 -15 0
7 -15 0
6 8 -16 0
6 9 -16 0
-8 -9 16 0
8 9 -16 0
-6 -9 16 0
-6 -8 16 0
14 15 16 -17 0
14 15 -16 17 0
14 -15 16 17 0
14 -15 -16 -17 0
-14 15 16 17 0
-14 15 -16 -17 0
-14 -15 16 -17 0
-14 -15 -16 17 0
-1 -18 19 0
1 -19 0
18 -19 0
-20 0
17 19 20 -21 0
17 19 -20 21 0
17 -19 20 21 0
17 -19 -20 -21 0
-17 19 20 21 0
-17 19 -20 -21 0
-17 -19 20 -21 0
-17 -19 -20 21 0
-21 -22 0
21 22 0
-12 -22 23 0
12 -23 0
22 -23 0
-24 -2 25 0
24 -25 0
2 -25 0
-13 -7 26 0
13 -26 0
7 -26 0
14 15 -27 0
14 16 -27 0
-15 -16 27 0
15 16 -27 0
-14 -16 27 0
-14 -15 27 0
25 26 27 -28 0
25 26 -27 28 0
25 -26 27 28 0
25 -26 -27 -28 0
-25 26 27 28 0
-25 26 -27 -28 0
-25 -26 27 -28 0
-25 -26 -27 28 0
-5 -18 29 0
5 -29 0
18 -29 0
17 19 -30 0
17 20 -30 0
-19 -20 30 0
19 20 -30 0
-17 -20 30 0
-17 -19 30 0
28 29 30 -31 0
28 29 -30 31 0
28 -29 30 31 0
28 -29 -30 -31 0
-28 29 30 31 0
-28 29 -30 -31 0
-28 -29 30 -31 0
-28 -29 -30 31 0
-1 -32 33 0
1 -33 0
32 -33 0
-34 0
31 33 34 -35 0
31 33 -34 35 0
31 -33 34 35 0
31 -33 -34 -35 0
-31 33 34 35 0
-31 33 -34 -35 0
-31 -33 34 -35 0
-31 -33 -34 35 0
-35 -36 0
35 36 0
-23 -36 37 0
23 -37 0
36 -37 0
-38 -2 39 0
38 -39 0
2 -39 0
-24 -7 40 0
24 -40 0
7 -40 0
25 26 -41 0
25 27 -41 0
-26 -27 41 0
26 27 -41 0
-25 -27 41 0
-25 -26 41 0
39 40 41 -42 0
39 40 -41 42 0
39 -40 41 42 0
39 -40 -41 -42 0
-39 40 41 42 0
-39 40 -41 -42 0
-39 -40 41 -42 0
-39 -40 -41 42 0
-13 -18 43 0
13 -43 0
18 -43 0
28 29 -44 0
28 30 -44 0
-29 -30 44 0
29 30 -44 0
-28 -30 44 0
-28 -29 44 0
42 43 44 -45 0
42 43 -44 45 0
42 -43 44 45 0
42 -43 -44 -45 0
-42 43 44 45 0
-42 43 -44 -45 0
-42 -43 44 -45 0
-42 -43 -44 45 0
-5 -32 46 0
5 -46 0
32 -46 0
31 33 -47 0
31 34 -47 0
-33 -34 47 0
33 34 -47 0
-31 -34 47 0
-31 -33 47 0
45 46 47 -48 0
45 46 -47 48 0
45 -46 47 48 0
45 -46 -47 -48 0
-45 46 47 48 0
-45 46 -47 -48 0
-45 -46 47 -48 0
-45 -46 -47 48 0
-1 -49 50 0
1 -50 0
49 -50 0
-51 0
48 50 51 -52 0
48 50 -51 52 0
48 -50 51 52 0
48 -50 -51 -52 0
-48 50 51 52 0
-48 50 -51 -52 0
-48 -50 51 -52 0
-48 -50 -51 52 0
-37 -52 53 0
37 -53 0
52 -53 0
-54 -2 55 0
54 -55 0
2 -55 0
-38 -7 56 0
38 -56 0
7 -56 0
39 40 -57 0
39 41 -57 0
-40 -41 57 0
40 41 -57 0
-39 -41 57 0
-39 -40 57 0
55 56 57 -58 0
55 56 -57 58 0
55 -56 57 58 0
55 -56 -57 -58 0
-55 56 57 58 0
-55 56 -57 -58 0
-55 -56 57 -58 0
-55 -56 -57 58 0
-24 -18 59 0
24 -59 0
18 -59 0
42 43 -60 0
42 44 -60 0
-43 -44 60 0
43 44 -60 0
-42 -44 60 0
-42 -43 60 0
58 59 60 -61 0
58 59 -60 61 0
58 -59 60 61 0
58 -59 -60 -61 0
-58 59 60 61 0
-58 59 -60 -61 0
-58 -59 60 -61 0
-58 -59 -60 61 0
-13 -32 62 0
13 -62 0
32 -62 0
45 46 -63 0
45 47 -63 0
-46 -47 63 0
46 47 -63 0
-45 -47 63 0
-45 -46 63 0
61 62 63 -64 0
61 62 -63 64 0
61 -62 63 64 0
61 -62 -63 -64 0
-61 62 63 64 0
-61 62 -63 -64 0
-61 -62 63 -64 0
-61 -62 -63 64 0
-5 -49 65 0
5 -65 0
49 -65 0
48 50 -66 0
48 51 -66 0
-50 -51 66 0
50 51 -66 0
-48 -51 66 0
-48 -50 66 0
64 65 66 -67 0
64 65 -66 67 0
64 -65 66 67 0
64 -65 -66 -67 0
-64 65 66 67 0
-64 65 -66 -67 0
-64 -65 66 -67 0
-64 -65 -66 67 0
-1 -68 69 0
1 -69 0
68 -69 0
-70 0
67 69 70 -71 0
67 69 -70 71 0
67 -69 70 71 0
67 -69 -70 -71 0
-67 69 70 71 0
-67 69 -70 -71 0
-67 -69 70 -71 0
-67 -69 -70 71 0
-71 -72 0
71 72 0
-53 -72 73 0
53 -73 0
72 -73 0
-74 -2 75 0
74 -75 0
2 -75 0
-54 -7 76 0
54 -76 0
7 -76 0
55 56 -77 0
55 57 -77 0
-56 -57 77 0
56 57 -77 0
-55 -57 77 0
-55 -56 77 0
75 76 77 -78 0
75 76 -77 78 0
75 -76 77 78 0
75 -76 -77 -78 0
-75 76 77 78 0
-75 76 -77 -78 0
-75 -76 77 -78 0
-75 -76 -77 78 0
-38 -18 79 0
38 -79 0
18 -79 0
58 59 -80 0
58 60 -80 0
-59 -60 80 0
59 60 -80 0
-58 -60 80 0
-58 -59 80 0
78 79 80 -81 0
78 79 -80 81 0
78 -79 80 81 0
78 -79 -80 -81 0
-78 79 80 81 0
-78 79 -80 -81 0
-78 -79 80 -81 0
-78 -79 -80 81 0
-24 -32 82 0
24 -82 0
32 -82 0
61 62 -83 0
61 63 -83 0
-62 -63 83 0
62 63 -83 0
-61 -63 83 0
-61 -62 83 0
81 82 83 -84 0
81 82 -83 84 0
81 -82 83 84 0
81 -82 -83 -84 0
-81 82 83 84 0
-81 82 -83 -84 0
-81 -82 83 -84 0
-81 -82 -83 84 0
-13 -49 85 0
13 -85 0
49 -85 0
64 65 -86 0
64 66 -86 0
-65 -66 86 0
65 66 -86 0
-64 -66 86 0
-64 -65 86 0
84 85 86 -87 0
84 85 -86 87 0
84 -85 86 87 0
84 -85 -86 -87 0
-84 85 86 87 0
-84 85 -86 -87 0
-84 -85 86 -87 0
-84 -85 -86 87 0
-5 -68 88 0
5 -88 0
68 -88 0
67 69 -89 0
67 70 -89 0
-69 -70 89 0
69 70 -89 0
-67 -70 89 0
-67 -69 89 0
87 88 89 -90 0
87 88 -89 90 0
87 -88 89 90 0
87 -88 -89 -90 0
-87 88 89 90 0
-87 88 -89 -90 0
-87 -88 89 -90 0
-87 -88 -89 90 0
-1 -91 92 0
1 -92 0
91 -92 0
-93 0
90 92 93 -94 0
90 92 -93 94 0
90 -92 93 94 0
90 -92 -93 -94 0
-90 92 93 94 0
-90 92 -93 -94 0
-90 -92 93 -94 0
-90 -92 -93 94 0
-94 -95 0
94 95 0
-73 -95 96 0
73 -96 0
95 -96 0
-97 -2 98 0
97 -98 0
2 -98 0
-74 -7 99 0
74 -99 0
7 -99 0
75 76 -100 0
75 77 -100 0
-76 -77 100 0
76 77 -100 0
-75 -77 100 0
-75 -76 100 0
98 99 100 -101 0
98 99 -100 101 0
98 -99 100 101 0
98 -99 -100 -101 0
-98 99 100 101 0
-98 99 -100 -101 0
-98 -99 100 -101 0
-98 -99 -100 101 0
-54 -18 102 0
54 -102 0
18 -102 0
78 79 -103 0
78 80 -103 0
-79 -80 103 0
79 80 -103 0
-78 -80 103 0
-78 -79 103 0
101 102 103 -104 0
101 102 -103 104 0
101 -102 103 104 0
101 -102 -103 -104 0
-101 102 103 104 0
-101 102 -103 -104 0
-101 -102 103 -104 0
-101 -102 -103 104 0
-38 -32 105 0
38 -105 0
32 -105 0
81 82 -106 0
81 83 -106 0
-82 -83 106 0
82 83 -106 0
-81 -83 106 0
-81 -82 106 0
104 105 106 -107 0
104 105 -106 107 0
104 -105 106 107 0
104 -105 -106 -107 0
-104 105 106 107 0
-104 105 -106 -107 0
-104 -105 106 -107 0
-104 -105 -106 107 0
-24 -49 108 0
24 -108 0
49 -108 0
84 85 -109 0
84 86 -109 0
-85 -86 109 0
85 86 -109 0
-84 -86 109 0
-84 -85 109 0
107 108 109 -110 0
107 108 -109 110 0
107 -108 109 110 0
107 -108 -109 -110 0
-107 108 109 110 0
-107 108 -109 -110 0
-107 -108 109 -110 0
-107 -108 -109 110 0
-13 -68 111 0
13 -111 0
68 -111 0
87 88 -112 0
87 89 -112 0
-88 -89 112 0
88 89 -112 0
-87 -89 112 0
-87 -88 112 0
110 111 112 -113 0
110 111 -112 113 0
110 -111 112 113 0
110 -111 -112 -113 0
-110 111 112 113 0
-110 111 -112 -113 0
-110 -111 112 -113 0
-110 -111 -112 113 0
-5 -91 114 0
5 -114 0
91 -114 0
90 92 -115 0
90 93 -115 0
-92 -93 115 0
92 93 -115 0
-90 -93 115 0
-90 -92 115 0
113 114 115 -116 0
113 114 -115 116 0
113 -114 115 116 0
113 -114 -115 -116 0
-113 114 115 116 0
-113 114 -115 -116 0
-113 -114 115 -116 0
-113 -114 -115 116 0
-1 -117 118 0
1 -118 0
117 -118 0
-119 0
116 118 119 -120 0
116 118 -119 120 0
116 -118 119 120 0
116 -118 -119 -120 0
-116 118 119 120 0
-116 118 -119 -120 0
-116 -118 119 -120 0
-116 -118 -119 120 0
-120 -121 0
120 121 0
-96 -121 122 0
96 -122 0
121 -122 0
122 0
